0,31,23,82,38,40,30,36,47,77,27
31,0,10,64,53,12,19,21,16,81,44
23,10,0,63,42,23,24,27,26,73,34
82,64,63,0,66,71,83,84,62,57,70
38,53,42,66,0,65,64,68,66,40,11
40,12,23,71,65,0,15,13,11,94,56
30,19,24,83,64,15,0,5,26,97,53
36,21,27,84,68,13,5,0,25,101,58
47,16,26,62,66,11,26,25,0,91,59
77,81,73,57,40,94,97,101,91,0,51
27,44,34,70,11,56,53,58,59,51,0